PROBLEM NAME: eil51_n20
KNAPSACK DATA TYPE: multiple strongly correlated
DIMENSION: 20
NUMBER OF ITEMS: 19
CAPACITY OF KNAPSACK: 994
MIN SPEED: 0.1
MAX SPEED: 1
RENTING RATIO: 3.52
EDGE_WEIGHT_TYPE: CEIL_2D
NODE_COORD_SECTION	(INDEX, X, Y):
1	20	26
2	17	63
3	31	32
4	5	25
5	36	16
6	27	23
7	13	13
8	57	58
9	62	42
10	27	68
11	43	67
12	46	10
13	61	33
14	32	22
15	10	17
16	5	64
17	30	15
18	39	10
19	32	39
20	30	40
ITEMS SECTION	(INDEX, PROFIT, WEIGHT, ASSIGNED NODE NUMBER):
1	1194	994	4
2	1192	992	15
3	1015	815	7
4	991	791	17
5	966	766	5
6	867	667	18
7	849	649	12
8	798	598	13
9	744	544	9
10	706	506	8
11	657	457	11
12	646	446	10
13	622	422	2
14	616	416	16
15	559	359	20
16	534	334	19
17	437	237	3
18	294	94	14
19	207	7	6
